p cnf 121 73
-32 -30 -29 133 -42 0
-110 -77 132 -133 0
-62 -123 -56 -119 -114 -50 -111 -47 -107 -40 -100 -35 -96 -91 -86 -19 -78 -73 -133 -4 -67 -129 0
-128 -127 -62 -121 -53 -113 -48 -109 -44 -107 -39 -99 -35 -94 -25 -88 -82 -3 -77 -71 -133 -67 0
-62 -123 -57 -118 -52 -113 -112 -47 -106 -41 -101 -36 -97 -91 -86 -131 -16 -75 -73 -133 -67 0
-128 -127 -63 -62 -121 -53 -113 -48 -109 -44 -107 -39 -99 -35 -94 -25 -88 -82 -77 -71 -133 -2 0
-32 -110 -77 -42 134 -113 0
-62 -124 -121 -56 -52 -47 -108 -41 -103 -35 -96 -31 -70 -28 -90 -85 -14 -134 -67 -129 0
-62 -124 -121 -56 -52 -47 -108 -41 -103 -35 -96 -31 -70 -28 -90 -85 -131 -14 -134 -67 0
-128 -63 -30 -127 -77 -42 135 0
-47 -29 -91 -42 136 0
-123 -59 -56 -118 -116 -50 -111 -104 -39 -8 -101 -37 -33 -31 -94 -83 -76 -136 -71 -67 0
-96 137 -36 0
-62 -124 -56 -119 -50 -113 -47 -106 -41 -99 -91 -83 -14 -137 -70 -5 -132 -67 -130 0
-62 -124 -56 -119 -50 -113 -47 -106 -41 -100 -91 -83 -67 -14 -137 -70 -5 -132 -131 0
-62 -124 -56 -119 -50 -113 -47 -106 -41 -100 -91 -83 -14 -137 -70 -5 -132 -67 -129 0
-61 -123 -56 -118 -115 -51 -112 -47 -9 -106 -41 -101 -91 -86 -131 -78 -137 -71 -133 -67 0
-62 -123 -57 -118 -52 -115 -112 -47 -9 -106 -41 -101 -91 -86 -131 -78 -137 -71 -133 -67 0
-60 -123 -57 -118 -52 -113 -112 -47 -106 -41 -103 -91 -86 -131 -78 -14 -137 -133 -68 -67 0
-60 -123 -56 -119 -114 -50 -111 -47 -73 -107 -40 -100 -91 -86 -19 -78 -137 -133 -4 -67 -129 0
-124 -60 -56 -119 -114 -50 -111 -47 -73 -107 -40 -100 -91 -86 -19 -78 -137 -133 -4 -67 -129 0
-127 -62 -121 -56 -50 -47 -108 -41 -103 -70 -31 -28 -90 -85 -14 -137 -134 -5 -67 -129 0
-127 -62 -121 -56 -50 -47 -108 -41 -103 -70 -31 -28 -90 -85 -131 -14 -137 -134 -5 -67 0
-61 -122 -56 -50 -113 -46 -109 -108 -40 -101 -71 -28 -90 -83 -15 -137 -135 0
-62 -124 -56 -119 -116 -50 -111 -41 -104 -100 -32 -31 -83 -131 -14 -77 -137 -136 -70 -5 -67 0
-123 -58 -57 -118 -52 -113 -112 -73 -108 -41 -99 -33 -30 -86 -131 -80 -14 -137 -136 -67 0
-71 138 -60 0
-124 -57 -120 -51 -113 -47 -110 -108 -42 -41 -103 -34 -33 -96 -31 -28 -90 -86 -131 -16 -3 -76 -138 -67 0
-124 -119 -55 -50 -113 -47 -106 -41 -100 -36 -97 -91 -84 -4 -15 -138 -132 -131 -65 0
-124 -56 -119 -116 -50 -47 -110 -106 -40 -101 -36 -94 -91 -26 -83 -76 -138 -129 -133 -65 0
-122 -54 -113 -48 -109 -108 -44 -40 -101 -37 -32 -95 -28 -90 -25 -83 -138 -135 -3 0
-121 -54 -116 -48 -110 -45 -107 -40 -103 -37 -33 -94 -29 -87 -83 -12 -138 -135 -4 0
-122 -54 -113 -48 -109 -108 -44 -40 -101 -36 -32 -95 -28 -90 -25 -83 -138 -135 -3 0
-125 -119 -54 -50 -113 -47 -110 -9 -107 -41 -100 -91 -5 -85 -78 -138 -137 -133 -131 -66 0
-127 -122 -55 -50 -47 -108 -41 -103 -30 -28 -90 -83 -15 -138 -137 -134 -131 -65 0
-123 -56 -118 -52 -115 -112 -9 -106 -41 -101 -33 -30 -86 -131 -78 -138 -137 -136 -67 0
-125 -119 -54 -50 -113 -110 -9 -107 -41 -100 -33 -30 -85 -78 -138 -137 -136 -5 -131 -65 0
-63 139 -132 0
-125 -121 -54 -116 -50 -45 -107 -40 -103 -36 -94 -91 -83 -12 -139 -138 -2 -129 0
-125 -121 -54 -116 -50 -47 -9 -106 -41 -99 -91 -83 -139 -138 -137 -6 -131 0
-128 -125 -121 -53 -113 -49 -44 -106 -41 -100 -88 -83 -13 -139 -138 -137 0
-40 -127 140 0
-128 -63 -62 -122 -53 -113 -48 -109 -44 -107 -99 -35 -94 -25 -88 -82 -77 -140 -71 -133 -2 0
-121 -56 -116 -50 -47 -107 -101 -35 -94 -91 -26 -83 -140 -138 -129 -132 -65 0
-122 -56 -50 -47 -108 -101 -36 -31 -94 -28 -90 -26 -82 -140 -138 -129 -134 -65 0
-59 -122 -53 -115 -48 -108 -44 -100 -36 -94 -88 -82 -13 -140 -139 -71 0
-128 -59 -122 -53 -115 -48 -108 -44 -100 -36 -94 -88 -82 -140 -139 -10 -71 -2 0
-128 -62 -122 -117 -53 -48 -45 -107 -101 -35 -94 -87 -82 -12 -139 -140 -71 -2 0
-128 -61 -121 -56 -50 -113 -46 -106 -101 -88 -83 -15 -140 -139 -137 -71 -4 0
-128 -121 -54 -113 -48 -44 -107 -37 -99 -94 -25 -88 -82 -140 -139 -138 -3 0
-128 -122 -54 -113 -48 -44 -107 -36 -99 -94 -25 -88 -82 -140 -139 -138 -3 0
-128 -121 -54 -113 -48 -44 -107 -36 -99 -94 -25 -88 -82 -140 -139 -138 -3 0
-128 -122 -117 -53 -48 -45 -107 -101 -36 -94 -87 -82 -12 -139 -138 -140 -4 0
-128 -121 -54 -116 -50 -45 -107 -103 -36 -94 -87 -83 -12 -139 -138 -140 -2 0
-128 -122 -54 -113 -48 -44 -107 -37 -99 -94 -25 -88 -82 -140 -139 -138 -3 0
-128 -121 -53 -116 -50 -45 -107 -103 -36 -94 -87 -83 -12 -139 -138 -140 -2 0
-128 -121 -54 -114 -50 -45 -106 -102 -88 -83 -19 -140 -139 -138 -137 -4 0
-54 -60 141 0
-128 -121 -114 -49 -45 -107 -99 -91 -24 -83 -141 -140 -139 -137 -72 -4 0
-128 -124 -121 -113 -49 -45 -107 -39 -99 -88 -24 -83 -141 -139 -137 -72 -4 0
-64 -125 -121 -49 -45 -106 -39 -99 -31 -29 -91 -24 -83 -141 -137 -72 -134 -4 -129 0
-128 -122 -113 -49 -45 -108 -99 -88 -24 -83 -141 -140 -139 -137 -72 -4 0
-128 -121 -113 -49 -45 -108 -99 -88 -24 -83 -141 -140 -139 -137 -72 -4 0
-96 -83 142 0
-62 -124 -56 -119 -52 -113 -47 -106 -41 -100 -35 -91 -14 -142 -70 -132 -67 -129 0
-62 -124 -56 -119 -52 -113 -47 -106 -41 -35 -99 -91 -131 -14 -142 -70 -132 -67 0
-124 -121 -50 -45 -106 -39 -99 -35 -31 -29 -91 -24 -142 -141 -129 -72 -134 -2 -65 0
-128 -125 -121 -50 -113 -45 -107 -39 -99 -35 -88 -24 -142 -141 -139 -72 -2 0
-128 -121 -50 -113 -45 -107 -35 -99 -88 -24 -142 -141 -140 -139 -72 -2 0
-128 -121 -114 -50 -45 -107 -35 -99 -91 -24 -142 -141 -140 -139 -72 -2 0
-128 -121 -56 -50 -45 -106 -103 -35 -91 -22 -142 -77 -140 -138 -133 -65 0
-61 -121 -56 -50 -113 -46 -106 -101 -37 -88 -15 -142 -140 -139 -71 -4 -129 0
-128 -121 -54 -114 -50 -45 -106 -102 -37 -88 -19 -142 -140 -139 -138 -4 0
